NAME          OrnekMPS

OBJSENSE
 MIN
ROWS
 N  COST
 L  LIM1
 G  LIM2
 E  EQN
COLUMNS
    X1        COST               2.0   LIM1               .5
	X1			LIM2 1.0			EQN  1.0
    X2        COST               3.0   LIM1               .25
	X2		LIM2  3.0		EQN  1.0
RHS
    RHS1      LIM1               4.0		LIM2	20.0
	RHS1      EQN   	10.0
ENDATA
